c CNF
c from Selman's wff generator
p cnf 200  1400
1.0 -39 180 0
1.0 13 7 0
1.0 -49 32 0
1.0 -180 150 0
1.0 -36 190 0
1.0 -4 -184 0
1.0 -68 168 0
1.0 50 19 0
1.0 198 59 0
1.0 66 -193 0
1.0 24 44 0
1.0 193 115 0
1.0 104 -4 0
1.0 187 58 0
1.0 26 200 0
1.0 -19 143 0
1.0 2 62 0
1.0 -54 118 0
1.0 161 -188 0
1.0 -102 84 0
1.0 -87 78 0
1.0 -135 -180 0
1.0 180 -3 0
1.0 146 -198 0
1.0 59 -43 0
1.0 -160 -196 0
1.0 183 71 0
1.0 154 57 0
1.0 -134 2 0
1.0 182 -42 0
1.0 -44 -64 0
1.0 -61 -175 0
1.0 17 -150 0
1.0 146 -21 0
1.0 91 170 0
1.0 27 -102 0
1.0 104 200 0
1.0 41 57 0
1.0 120 -6 0
1.0 181 -10 0
1.0 -159 -131 0
1.0 152 69 0
1.0 39 45 0
1.0 147 173 0
1.0 -172 53 0
1.0 109 182 0
1.0 187 -171 0
1.0 -180 -109 0
1.0 39 -138 0
1.0 6 74 0
1.0 -119 120 0
1.0 -92 134 0
1.0 186 50 0
1.0 -32 173 0
1.0 -143 -132 0
1.0 40 150 0
1.0 87 103 0
1.0 -176 101 0
1.0 -20 -47 0
1.0 -181 -74 0
1.0 124 -52 0
1.0 -25 -184 0
1.0 116 -159 0
1.0 108 -150 0
1.0 52 102 0
1.0 -2 24 0
1.0 -71 81 0
1.0 155 109 0
1.0 160 -78 0
1.0 -62 -6 0
1.0 -164 40 0
1.0 190 164 0
1.0 65 153 0
1.0 176 190 0
1.0 70 20 0
1.0 -129 113 0
1.0 191 135 0
1.0 140 -22 0
1.0 -62 159 0
1.0 122 -41 0
1.0 193 -159 0
1.0 148 140 0
1.0 160 111 0
1.0 -24 143 0
1.0 77 46 0
1.0 -68 -93 0
1.0 -51 -95 0
1.0 -136 -70 0
1.0 29 -11 0
1.0 -150 -112 0
1.0 -22 34 0
1.0 176 172 0
1.0 18 125 0
1.0 17 188 0
1.0 83 193 0
1.0 -63 199 0
1.0 9 -43 0
1.0 154 -60 0
1.0 93 64 0
1.0 -35 81 0
1.0 -5 189 0
1.0 176 151 0
1.0 143 129 0
1.0 128 -22 0
1.0 65 162 0
1.0 -21 -162 0
1.0 -25 15 0
1.0 -95 102 0
1.0 -90 48 0
1.0 -198 -10 0
1.0 -139 200 0
1.0 22 41 0
1.0 -2 96 0
1.0 -57 98 0
1.0 -112 116 0
1.0 -18 -52 0
1.0 -100 27 0
1.0 37 -96 0
1.0 95 -183 0
1.0 23 44 0
1.0 139 -105 0
1.0 2 -181 0
1.0 -97 -18 0
1.0 70 -26 0
1.0 53 192 0
1.0 87 -104 0
1.0 87 -108 0
1.0 -151 98 0
1.0 2 178 0
1.0 -159 163 0
1.0 -181 36 0
1.0 62 -188 0
1.0 179 86 0
1.0 190 70 0
1.0 -177 -143 0
1.0 40 117 0
1.0 95 102 0
1.0 -65 161 0
1.0 197 76 0
1.0 -63 114 0
1.0 -200 -177 0
1.0 46 152 0
1.0 -95 -50 0
1.0 166 176 0
1.0 -21 -114 0
1.0 -21 177 0
1.0 -71 -36 0
1.0 -8 -200 0
1.0 106 172 0
1.0 -36 52 0
1.0 1 -86 0
1.0 61 111 0
1.0 25 166 0
1.0 -142 40 0
1.0 -76 100 0
1.0 99 178 0
1.0 149 -97 0
1.0 148 -13 0
1.0 -98 -120 0
1.0 31 149 0
1.0 -114 103 0
1.0 142 42 0
1.0 -141 63 0
1.0 40 -169 0
1.0 -65 104 0
1.0 -116 43 0
1.0 -163 -76 0
1.0 24 -12 0
1.0 -114 149 0
1.0 190 -60 0
1.0 -122 -174 0
1.0 -142 11 0
1.0 115 124 0
1.0 166 -181 0
1.0 -57 15 0
1.0 27 -169 0
1.0 -117 -11 0
1.0 71 -69 0
1.0 -43 -4 0
1.0 -15 -105 0
1.0 -28 -11 0
1.0 -192 2 0
1.0 -16 42 0
1.0 -11 -146 0
1.0 156 178 0
1.0 46 69 0
1.0 72 172 0
1.0 76 -63 0
1.0 73 174 0
1.0 -176 -18 0
1.0 60 40 0
1.0 -185 -15 0
1.0 -192 30 0
1.0 -98 -185 0
1.0 156 196 0
1.0 -58 -71 0
1.0 -45 32 0
1.0 49 -106 0
1.0 -145 -44 0
1.0 58 175 0
1.0 4 -37 0
1.0 21 -11 0
1.0 7 126 0
1.0 -197 142 0
1.0 173 189 0
1.0 -95 72 0
1.0 -116 -109 0
1.0 84 39 0
1.0 -76 108 0
1.0 119 -59 0
1.0 -185 -79 0
1.0 21 -183 0
1.0 172 84 0
1.0 -156 146 0
1.0 55 -74 0
1.0 113 -65 0
1.0 173 13 0
1.0 71 155 0
1.0 34 4 0
1.0 187 -58 0
1.0 142 64 0
1.0 -10 129 0
1.0 2 -11 0
1.0 -75 26 0
1.0 -38 -186 0
1.0 -141 -153 0
1.0 157 -200 0
1.0 58 -76 0
1.0 139 -123 0
1.0 51 63 0
1.0 -73 -12 0
1.0 -37 70 0
1.0 -55 -133 0
1.0 -86 148 0
1.0 -147 196 0
1.0 72 84 0
1.0 -7 98 0
1.0 -161 168 0
1.0 -180 78 0
1.0 148 176 0
1.0 -109 -75 0
1.0 23 -165 0
1.0 -161 21 0
1.0 105 -176 0
1.0 -74 198 0
1.0 166 -80 0
1.0 -158 -48 0
1.0 -23 -53 0
1.0 -128 -103 0
1.0 -68 162 0
1.0 182 92 0
1.0 -67 -101 0
1.0 -99 167 0
1.0 47 41 0
1.0 -88 -170 0
1.0 22 -15 0
1.0 118 -167 0
1.0 128 -17 0
1.0 -109 -72 0
1.0 -173 194 0
1.0 -161 89 0
1.0 129 142 0
1.0 -111 -119 0
1.0 134 169 0
1.0 135 179 0
1.0 -196 -48 0
1.0 120 169 0
1.0 -162 -194 0
1.0 -82 95 0
1.0 37 -140 0
1.0 58 -154 0
1.0 122 161 0
1.0 -140 -77 0
1.0 124 92 0
1.0 -60 118 0
1.0 -111 -95 0
1.0 190 73 0
1.0 -12 30 0
1.0 184 -53 0
1.0 -14 -102 0
1.0 178 -82 0
1.0 -173 126 0
1.0 43 -78 0
1.0 -172 -198 0
1.0 -70 149 0
1.0 -179 -161 0
1.0 14 12 0
1.0 -114 30 0
1.0 -111 67 0
1.0 -193 137 0
1.0 -14 -170 0
1.0 -167 135 0
1.0 -83 134 0
1.0 95 -70 0
1.0 -82 -91 0
1.0 121 114 0
1.0 -180 -79 0
1.0 15 31 0
1.0 200 -196 0
1.0 130 160 0
1.0 94 -121 0
1.0 190 98 0
1.0 188 -30 0
1.0 -143 -152 0
1.0 30 55 0
1.0 85 102 0
1.0 98 85 0
1.0 45 -53 0
1.0 -173 -114 0
1.0 11 -23 0
1.0 -52 -99 0
1.0 -50 46 0
1.0 -101 -12 0
1.0 113 194 0
1.0 79 -119 0
1.0 171 -77 0
1.0 -191 188 0
1.0 -10 140 0
1.0 38 106 0
1.0 -152 174 0
1.0 186 89 0
1.0 -83 -105 0
1.0 24 -146 0
1.0 -23 145 0
1.0 133 -44 0
1.0 183 13 0
1.0 -119 61 0
1.0 -35 74 0
1.0 -162 158 0
1.0 63 27 0
1.0 173 -89 0
1.0 34 -17 0
1.0 -61 22 0
1.0 35 -113 0
1.0 174 171 0
1.0 45 144 0
1.0 102 -147 0
1.0 174 -55 0
1.0 -143 -129 0
1.0 -145 148 0
1.0 170 50 0
1.0 -163 -111 0
1.0 -82 -178 0
1.0 -122 172 0
1.0 -119 182 0
1.0 -36 -37 0
1.0 -177 -155 0
1.0 96 -113 0
1.0 -161 97 0
1.0 -52 43 0
1.0 -187 -79 0
1.0 10 -173 0
1.0 159 -168 0
1.0 -5 -6 0
1.0 -160 66 0
1.0 179 -199 0
1.0 95 -108 0
1.0 -151 -163 0
1.0 42 126 0
1.0 99 172 0
1.0 140 -70 0
1.0 -76 8 0
1.0 74 30 0
1.0 -28 -92 0
1.0 199 -1 0
1.0 164 44 0
1.0 169 181 0
1.0 -153 99 0
1.0 168 175 0
1.0 183 160 0
1.0 -189 170 0
1.0 -62 97 0
1.0 98 6 0
1.0 49 95 0
1.0 76 120 0
1.0 -18 -8 0
1.0 182 -156 0
1.0 116 -109 0
1.0 -79 -126 0
1.0 -23 -58 0
1.0 -63 -8 0
1.0 -103 -44 0
1.0 164 -13 0
1.0 -20 127 0
1.0 -83 -197 0
1.0 -106 -184 0
1.0 -110 -22 0
1.0 80 -122 0
1.0 130 31 0
1.0 75 183 0
1.0 195 18 0
1.0 145 187 0
1.0 184 181 0
1.0 164 127 0
1.0 149 195 0
1.0 -117 57 0
1.0 87 -25 0
1.0 -7 90 0
1.0 108 19 0
1.0 6 -30 0
1.0 10 -103 0
1.0 30 -150 0
1.0 144 53 0
1.0 -109 -176 0
1.0 -200 187 0
1.0 76 -156 0
1.0 175 -21 0
1.0 -51 113 0
1.0 15 46 0
1.0 195 -82 0
1.0 -134 27 0
1.0 2 106 0
1.0 93 -194 0
1.0 -150 -13 0
1.0 -34 186 0
1.0 -98 -71 0
1.0 -116 -180 0
1.0 61 -178 0
1.0 5 48 0
1.0 153 74 0
1.0 68 14 0
1.0 -27 165 0
1.0 -150 43 0
1.0 -114 91 0
1.0 -70 -116 0
1.0 -94 189 0
1.0 -36 -162 0
1.0 35 -111 0
1.0 -124 -47 0
1.0 11 -59 0
1.0 101 156 0
1.0 47 -166 0
1.0 82 -184 0
1.0 172 -72 0
1.0 -175 195 0
1.0 28 69 0
1.0 187 159 0
1.0 -170 -44 0
1.0 -50 161 0
1.0 4 -88 0
1.0 -134 -71 0
1.0 143 -166 0
1.0 161 -4 0
1.0 72 11 0
1.0 -170 -146 0
1.0 189 50 0
1.0 10 37 0
1.0 124 150 0
1.0 -20 -161 0
1.0 126 199 0
1.0 2 82 0
1.0 -93 135 0
1.0 80 37 0
1.0 -86 67 0
1.0 -103 161 0
1.0 110 -111 0
1.0 71 -46 0
1.0 44 171 0
1.0 -52 -155 0
1.0 90 -52 0
1.0 88 -8 0
1.0 75 -145 0
1.0 105 179 0
1.0 -90 -87 0
1.0 -132 -35 0
1.0 5 37 0
1.0 192 140 0
1.0 191 7 0
1.0 14 87 0
1.0 32 -121 0
1.0 -100 -68 0
1.0 -154 92 0
1.0 127 -104 0
1.0 -141 -81 0
1.0 21 187 0
1.0 194 62 0
1.0 149 -141 0
1.0 -61 -160 0
1.0 -28 -64 0
1.0 156 97 0
1.0 200 -128 0
1.0 9 200 0
1.0 187 -85 0
1.0 -146 128 0
1.0 68 -82 0
1.0 41 189 0
1.0 53 38 0
1.0 134 -116 0
1.0 43 104 0
1.0 103 145 0
1.0 29 -118 0
1.0 45 -55 0
1.0 136 -144 0
1.0 133 -131 0
1.0 -168 -93 0
1.0 8 85 0
1.0 188 106 0
1.0 -51 179 0
1.0 96 -47 0
1.0 101 123 0
1.0 66 -95 0
1.0 -25 -56 0
1.0 148 -177 0
1.0 62 126 0
1.0 -32 105 0
1.0 -83 -119 0
1.0 -166 15 0
1.0 -138 171 0
1.0 66 115 0
1.0 170 -184 0
1.0 160 175 0
1.0 101 -77 0
1.0 182 10 0
1.0 129 175 0
1.0 -190 -160 0
1.0 -130 -62 0
1.0 177 -131 0
1.0 114 168 0
1.0 142 136 0
1.0 -13 -166 0
1.0 175 -188 0
1.0 -162 -99 0
1.0 58 -156 0
1.0 -18 -8 0
1.0 -138 69 0
1.0 -36 -3 0
1.0 139 -20 0
1.0 -185 -193 0
1.0 181 -3 0
1.0 101 -58 0
1.0 -14 171 0
1.0 178 -129 0
1.0 -197 163 0
1.0 166 -90 0
1.0 110 29 0
1.0 22 1 0
1.0 -4 -115 0
1.0 173 -37 0
1.0 7 -8 0
1.0 136 -41 0
1.0 -4 -65 0
1.0 155 173 0
1.0 -2 128 0
1.0 128 -10 0
1.0 125 169 0
1.0 5 98 0
1.0 -105 100 0
1.0 -140 -95 0
1.0 -159 -136 0
1.0 -109 -183 0
1.0 -111 134 0
1.0 -144 158 0
1.0 -126 -5 0
1.0 -102 48 0
1.0 147 137 0
1.0 32 -19 0
1.0 -155 140 0
1.0 -123 81 0
1.0 14 -106 0
1.0 63 -40 0
1.0 -44 -191 0
1.0 -38 -59 0
1.0 196 197 0
1.0 15 -99 0
1.0 38 -121 0
1.0 -2 4 0
1.0 -109 -64 0
1.0 -103 -198 0
1.0 188 76 0
1.0 135 -42 0
1.0 -39 80 0
1.0 178 175 0
1.0 -96 54 0
1.0 -57 -169 0
1.0 -32 -84 0
1.0 82 95 0
1.0 171 -173 0
1.0 15 104 0
1.0 -184 -192 0
1.0 -167 128 0
1.0 -181 153 0
1.0 121 -71 0
1.0 155 140 0
1.0 -34 167 0
1.0 -139 -200 0
1.0 104 143 0
1.0 134 -111 0
1.0 -39 25 0
1.0 178 121 0
1.0 191 -60 0
1.0 -199 136 0
1.0 103 87 0
1.0 -86 -144 0
1.0 86 199 0
1.0 -110 -125 0
1.0 -150 -82 0
1.0 3 -24 0
1.0 -83 75 0
1.0 -11 -119 0
1.0 -5 149 0
1.0 92 -148 0
1.0 -147 157 0
1.0 82 117 0
1.0 -199 172 0
1.0 -195 183 0
1.0 -57 131 0
1.0 -50 72 0
1.0 -20 -133 0
1.0 81 25 0
1.0 182 86 0
1.0 2 87 0
1.0 58 51 0
1.0 -33 194 0
1.0 -125 -89 0
1.0 160 -136 0
1.0 69 -173 0
1.0 -197 -179 0
1.0 64 58 0
1.0 145 135 0
1.0 185 67 0
1.0 -61 -185 0
1.0 -74 65 0
1.0 200 187 0
1.0 160 -103 0
1.0 -81 -193 0
1.0 50 -176 0
1.0 -110 76 0
1.0 -142 52 0
1.0 -36 -20 0
1.0 -84 146 0
1.0 -133 156 0
1.0 58 -170 0
1.0 162 182 0
1.0 158 93 0
1.0 -168 -2 0
1.0 -53 73 0
1.0 -93 -97 0
1.0 43 -141 0
1.0 97 -12 0
1.0 181 -113 0
1.0 -95 175 0
1.0 -68 159 0
1.0 -161 80 0
1.0 -153 54 0
1.0 151 -101 0
1.0 -41 -80 0
1.0 92 33 0
1.0 146 184 0
1.0 159 167 0
1.0 126 11 0
1.0 90 4 0
1.0 58 1 0
1.0 102 -107 0
1.0 187 168 0
1.0 -200 -171 0
1.0 -154 -163 0
1.0 -129 77 0
1.0 -88 -198 0
1.0 1 40 0
1.0 41 -106 0
1.0 12 -68 0
1.0 36 163 0
1.0 -133 25 0
1.0 -187 -166 0
1.0 -42 -136 0
1.0 -134 -111 0
1.0 -150 -126 0
1.0 -31 59 0
1.0 127 -15 0
1.0 -177 -117 0
1.0 -142 -177 0
1.0 142 -195 0
1.0 -131 14 0
1.0 -124 20 0
1.0 145 -191 0
1.0 49 -194 0
1.0 -8 -59 0
1.0 176 -133 0
1.0 110 90 0
1.0 85 90 0
1.0 103 148 0
1.0 -167 -76 0
1.0 67 -164 0
1.0 157 -104 0
1.0 -162 -26 0
1.0 158 42 0
1.0 -132 99 0
1.0 188 154 0
1.0 -101 109 0
1.0 -185 19 0
1.0 -182 -64 0
1.0 -168 -55 0
1.0 80 51 0
1.0 -93 121 0
1.0 20 24 0
1.0 177 70 0
1.0 -178 -17 0
1.0 35 123 0
1.0 -187 -178 0
1.0 33 -56 0
1.0 -106 -150 0
1.0 71 55 0
1.0 79 62 0
1.0 -131 -195 0
1.0 11 77 0
1.0 199 -84 0
1.0 -61 14 0
1.0 70 -22 0
1.0 -171 155 0
1.0 -10 195 0
1.0 -56 -28 0
1.0 22 75 0
1.0 152 -167 0
1.0 -50 -139 0
1.0 153 73 0
1.0 -94 9 0
1.0 -164 -170 0
1.0 164 37 0
1.0 64 5 0
1.0 -80 101 0
1.0 -67 -196 0
1.0 135 114 0
1.0 -187 31 0
1.0 -39 106 0
1.0 -75 51 0
1.0 87 -36 0
1.0 40 -63 0
1.0 -163 153 0
1.0 -149 129 0
1.0 -43 173 0
1.0 -3 80 0
1.0 185 54 0
1.0 105 -19 0
1.0 -54 154 0
1.0 17 -177 0
1.0 129 162 0
1.0 -91 -155 0
1.0 -127 -131 0
1.0 -10 -71 0
1.0 125 15 0
1.0 33 151 0
1.0 -105 -161 0
1.0 137 193 0
1.0 -155 109 0
1.0 -63 -104 0
1.0 -35 140 0
1.0 10 -90 0
1.0 -104 -92 0
1.0 43 -183 0
1.0 144 2 0
1.0 -195 -168 0
1.0 -76 -90 0
1.0 -193 172 0
1.0 111 -48 0
1.0 138 110 0
1.0 -2 18 0
1.0 -200 191 0
1.0 -58 24 0
1.0 -170 145 0
1.0 138 -40 0
1.0 168 79 0
1.0 -150 141 0
1.0 195 -61 0
1.0 -104 12 0
1.0 -155 -173 0
1.0 -169 -176 0
1.0 77 -7 0
1.0 58 -159 0
1.0 179 -100 0
1.0 -53 145 0
1.0 5 -126 0
1.0 138 190 0
1.0 163 -153 0
1.0 129 18 0
1.0 -24 94 0
1.0 53 5 0
1.0 -105 -103 0
1.0 47 63 0
1.0 -188 -23 0
1.0 13 -161 0
1.0 -113 88 0
1.0 106 -150 0
1.0 43 167 0
1.0 -172 28 0
1.0 131 -76 0
1.0 138 -37 0
1.0 59 188 0
1.0 148 67 0
1.0 -155 151 0
1.0 -100 -146 0
1.0 112 199 0
1.0 -27 -165 0
1.0 -40 -192 0
1.0 -28 163 0
1.0 -150 152 0
1.0 -19 -2 0
1.0 153 57 0
1.0 -3 -21 0
1.0 -20 33 0
1.0 197 157 0
1.0 149 -137 0
1.0 99 115 0
1.0 -67 19 0
1.0 21 -101 0
1.0 158 -89 0
1.0 109 -20 0
1.0 -53 72 0
1.0 29 -177 0
1.0 -113 99 0
1.0 13 16 0
1.0 -35 4 0
1.0 104 21 0
1.0 109 53 0
1.0 -72 -96 0
1.0 -168 -120 0
1.0 -96 59 0
1.0 157 -127 0
1.0 143 -78 0
1.0 81 -12 0
1.0 32 -61 0
1.0 -113 -67 0
1.0 -162 -103 0
1.0 -22 -82 0
1.0 -140 99 0
1.0 25 -144 0
1.0 -21 -115 0
1.0 126 -178 0
1.0 38 -131 0
1.0 -198 -55 0
1.0 158 -43 0
1.0 124 14 0
1.0 -112 -21 0
1.0 -165 -26 0
1.0 141 48 0
1.0 26 172 0
1.0 102 120 0
1.0 175 -147 0
1.0 -189 -146 0
1.0 -159 7 0
1.0 27 -136 0
1.0 -162 -110 0
1.0 -158 -63 0
1.0 34 -190 0
1.0 110 58 0
1.0 4 -91 0
1.0 -37 -126 0
1.0 132 -80 0
1.0 -15 -71 0
1.0 181 -126 0
1.0 -188 44 0
1.0 -34 -165 0
1.0 22 190 0
1.0 80 -43 0
1.0 -168 122 0
1.0 2 177 0
1.0 -48 7 0
1.0 -133 -69 0
1.0 -113 -84 0
1.0 49 97 0
1.0 86 -117 0
1.0 159 -114 0
1.0 35 194 0
1.0 170 83 0
1.0 89 44 0
1.0 -112 9 0
1.0 -93 -83 0
1.0 180 59 0
1.0 176 -107 0
1.0 20 114 0
1.0 108 85 0
1.0 167 143 0
1.0 186 139 0
1.0 -147 19 0
1.0 -102 90 0
1.0 -149 -192 0
1.0 98 -179 0
1.0 -93 -118 0
1.0 2 -63 0
1.0 5 -172 0
1.0 110 101 0
1.0 120 7 0
1.0 -97 76 0
1.0 -67 -50 0
1.0 29 -27 0
1.0 -144 -54 0
1.0 -117 -199 0
1.0 -170 137 0
1.0 -38 -198 0
1.0 -5 -31 0
1.0 -106 -80 0
1.0 -130 -116 0
1.0 142 19 0
1.0 73 -1 0
1.0 -199 -144 0
1.0 80 -22 0
1.0 20 182 0
1.0 -12 -51 0
1.0 131 72 0
1.0 187 -26 0
1.0 44 -98 0
1.0 -98 44 0
1.0 187 15 0
1.0 -36 112 0
1.0 94 -57 0
1.0 107 4 0
1.0 75 112 0
1.0 -137 -115 0
1.0 12 -3 0
1.0 47 1 0
1.0 15 71 0
1.0 -182 84 0
1.0 -140 184 0
1.0 188 2 0
1.0 -113 179 0
1.0 94 -113 0
1.0 116 -127 0
1.0 -127 -20 0
1.0 -90 96 0
1.0 -179 -98 0
1.0 -82 125 0
1.0 -127 46 0
1.0 25 -55 0
1.0 168 120 0
1.0 46 -36 0
1.0 -55 -41 0
1.0 136 -108 0
1.0 6 160 0
1.0 -85 195 0
1.0 40 88 0
1.0 -143 -141 0
1.0 -60 -3 0
1.0 39 38 0
1.0 78 194 0
1.0 -101 -51 0
1.0 -11 159 0
1.0 -154 -149 0
1.0 37 -157 0
1.0 97 -39 0
1.0 42 82 0
1.0 -120 -141 0
1.0 134 9 0
1.0 -60 137 0
1.0 -96 132 0
1.0 80 -71 0
1.0 27 -100 0
1.0 138 -185 0
1.0 67 -142 0
1.0 -82 31 0
1.0 39 193 0
1.0 -130 187 0
1.0 118 -132 0
1.0 -3 116 0
1.0 -15 -11 0
1.0 -196 32 0
1.0 174 189 0
1.0 19 30 0
1.0 -23 -118 0
1.0 -104 124 0
1.0 56 50 0
1.0 165 -133 0
1.0 -143 -39 0
1.0 -71 61 0
1.0 49 48 0
1.0 -77 168 0
1.0 85 -82 0
1.0 6 27 0
1.0 -76 29 0
1.0 162 -5 0
1.0 44 -148 0
1.0 -8 43 0
1.0 -90 -57 0
1.0 25 -50 0
1.0 131 -116 0
1.0 -142 108 0
1.0 137 115 0
1.0 120 -75 0
1.0 23 45 0
1.0 87 -36 0
1.0 -92 -11 0
1.0 60 -8 0
1.0 -123 124 0
1.0 32 -124 0
1.0 38 -139 0
1.0 -13 68 0
1.0 113 -199 0
1.0 -34 -152 0
1.0 163 117 0
1.0 125 68 0
1.0 -192 139 0
1.0 -62 194 0
1.0 132 -57 0
1.0 -125 179 0
1.0 177 45 0
1.0 -197 -12 0
1.0 -128 179 0
1.0 47 193 0
1.0 132 -11 0
1.0 4 -52 0
1.0 109 152 0
1.0 131 -59 0
1.0 -104 106 0
1.0 117 54 0
1.0 33 39 0
1.0 -32 -196 0
1.0 -6 177 0
1.0 -29 -52 0
1.0 -3 -24 0
1.0 82 -39 0
1.0 144 158 0
1.0 -12 143 0
1.0 -182 2 0
1.0 -197 39 0
1.0 15 134 0
1.0 -186 -156 0
1.0 -179 148 0
1.0 186 -161 0
1.0 -119 -131 0
1.0 -74 95 0
1.0 97 -68 0
1.0 -45 -95 0
1.0 -107 192 0
1.0 171 -152 0
1.0 -73 101 0
1.0 -146 34 0
1.0 -24 -82 0
1.0 56 -5 0
1.0 73 -108 0
1.0 3 -35 0
1.0 -26 -59 0
1.0 11 -115 0
1.0 19 115 0
1.0 66 -134 0
1.0 84 196 0
1.0 -11 -154 0
1.0 -39 77 0
1.0 173 31 0
1.0 2 96 0
1.0 -10 123 0
1.0 38 -181 0
1.0 114 -156 0
1.0 152 -53 0
1.0 6 45 0
1.0 -122 1 0
1.0 -32 18 0
1.0 113 -166 0
1.0 -89 -168 0
1.0 148 31 0
1.0 187 -81 0
1.0 133 -143 0
1.0 -188 -179 0
1.0 179 102 0
1.0 120 127 0
1.0 -93 -88 0
1.0 -55 106 0
1.0 136 -137 0
1.0 17 -123 0
1.0 66 159 0
1.0 -137 -72 0
1.0 -174 164 0
1.0 -91 -169 0
1.0 -56 -81 0
1.0 -187 -72 0
1.0 8 178 0
1.0 -101 -104 0
1.0 -63 -19 0
1.0 -180 -115 0
1.0 40 3 0
1.0 128 18 0
1.0 -182 175 0
1.0 88 118 0
1.0 -162 86 0
1.0 -61 -131 0
1.0 149 -127 0
1.0 42 167 0
1.0 169 108 0
1.0 -125 -154 0
1.0 -128 101 0
1.0 18 -21 0
1.0 107 -45 0
1.0 175 -173 0
1.0 100 -148 0
1.0 114 125 0
1.0 -32 -111 0
1.0 65 -84 0
1.0 184 24 0
1.0 -44 -87 0
1.0 -131 -26 0
1.0 199 7 0
1.0 154 81 0
1.0 -6 60 0
1.0 -171 127 0
1.0 11 -57 0
1.0 -80 -34 0
1.0 121 177 0
1.0 -2 191 0
1.0 197 -186 0
1.0 67 137 0
1.0 -197 -165 0
1.0 92 -102 0
1.0 158 30 0
1.0 -63 -93 0
1.0 69 35 0
1.0 25 192 0
1.0 -177 169 0
1.0 -105 -187 0
1.0 151 23 0
1.0 -124 70 0
1.0 -99 -41 0
1.0 -133 80 0
1.0 114 -180 0
1.0 -171 -142 0
1.0 -110 130 0
1.0 -116 106 0
1.0 -129 182 0
1.0 -52 -53 0
1.0 -94 53 0
1.0 133 56 0
1.0 -35 99 0
1.0 -40 -144 0
1.0 -73 -143 0
1.0 48 -78 0
1.0 60 -162 0
1.0 14 -162 0
1.0 -15 -171 0
1.0 -27 160 0
1.0 58 177 0
1.0 120 -17 0
1.0 -160 10 0
1.0 -88 -32 0
1.0 194 11 0
1.0 -173 -118 0
1.0 -88 -47 0
1.0 -7 125 0
1.0 -101 40 0
1.0 56 9 0
1.0 18 -190 0
1.0 22 6 0
1.0 17 -109 0
1.0 -26 -137 0
1.0 184 -109 0
1.0 34 -2 0
1.0 -41 17 0
1.0 -25 166 0
1.0 -156 -135 0
1.0 -141 -200 0
1.0 -109 -16 0
1.0 152 -122 0
1.0 -30 76 0
1.0 -77 -181 0
1.0 198 152 0
1.0 117 127 0
1.0 62 13 0
1.0 -13 -42 0
1.0 58 104 0
1.0 -25 102 0
1.0 -178 71 0
1.0 -52 116 0
1.0 68 -187 0
1.0 113 -137 0
1.0 -150 -106 0
1.0 148 134 0
1.0 38 137 0
1.0 -39 159 0
1.0 30 36 0
1.0 -151 42 0
1.0 28 -3 0
1.0 -140 58 0
1.0 164 -91 0
1.0 -25 133 0
1.0 -69 -130 0
1.0 -89 -42 0
1.0 -77 193 0
1.0 35 130 0
1.0 133 47 0
1.0 -105 118 0
1.0 -8 11 0
1.0 144 96 0
1.0 -25 -19 0
1.0 60 -43 0
1.0 -36 30 0
1.0 -160 10 0
1.0 -57 -134 0
1.0 51 124 0
1.0 135 9 0
1.0 104 -184 0
1.0 3 10 0
1.0 -52 72 0
1.0 -101 163 0
1.0 -172 88 0
1.0 -21 116 0
1.0 -40 -18 0
1.0 27 -19 0
1.0 3 142 0
1.0 151 99 0
1.0 171 66 0
1.0 -28 -46 0
1.0 134 -84 0
1.0 199 16 0
1.0 33 152 0
1.0 -171 -63 0
1.0 -4 -47 0
1.0 -146 -44 0
1.0 -109 -47 0
1.0 -92 119 0
1.0 -2 162 0
1.0 177 2 0
1.0 154 -51 0
1.0 114 -58 0
1.0 105 73 0
1.0 -116 29 0
1.0 -75 -154 0
1.0 -72 94 0
1.0 56 170 0
1.0 172 -113 0
1.0 164 111 0
1.0 -169 145 0
1.0 -18 -66 0
1.0 -94 -90 0
1.0 -43 -116 0
1.0 -10 125 0
1.0 94 61 0
1.0 -174 -140 0
1.0 51 40 0
1.0 185 7 0
1.0 -72 -15 0
1.0 -104 -92 0
1.0 8 67 0
1.0 192 47 0
1.0 -107 181 0
1.0 120 -141 0
1.0 -180 -30 0
1.0 -37 -81 0
1.0 95 -100 0
1.0 -192 -7 0
1.0 73 5 0
1.0 -51 -99 0
1.0 79 -99 0
1.0 -39 55 0
1.0 -85 -158 0
1.0 38 -147 0
1.0 -47 103 0
1.0 109 -75 0
1.0 80 -52 0
1.0 150 194 0
1.0 92 -126 0
1.0 -181 197 0
1.0 -154 -131 0
1.0 -77 -15 0
1.0 -117 53 0
1.0 128 196 0
1.0 -48 -51 0
1.0 44 -25 0
1.0 150 -54 0
1.0 -50 15 0
1.0 -146 180 0
1.0 -194 -115 0
1.0 -168 105 0
1.0 -101 -141 0
1.0 -192 39 0
1.0 -63 171 0
1.0 -24 37 0
1.0 52 -137 0
1.0 117 -69 0
1.0 184 -164 0
1.0 69 -156 0
1.0 -97 148 0
1.0 -186 62 0
1.0 32 94 0
1.0 -130 -3 0
1.0 -139 4 0
1.0 -72 196 0
1.0 160 185 0
1.0 -141 51 0
1.0 -198 -114 0
1.0 175 47 0
1.0 140 92 0
1.0 94 189 0
1.0 192 28 0
1.0 -24 -52 0
1.0 37 -123 0
1.0 174 -8 0
1.0 -121 137 0
1.0 -184 -186 0
1.0 -77 -162 0
1.0 151 -43 0
1.0 71 88 0
1.0 140 -123 0
1.0 -45 88 0
1.0 -95 166 0
1.0 -102 143 0
1.0 128 11 0
1.0 -173 -1 0
1.0 43 -175 0
1.0 63 70 0
1.0 -192 85 0
1.0 172 131 0
1.0 96 -43 0
1.0 186 -193 0
1.0 -4 -91 0
1.0 -91 99 0
1.0 -163 47 0
1.0 54 -129 0
1.0 -107 60 0
1.0 -114 -177 0
1.0 -59 130 0
1.0 13 -55 0
1.0 -173 30 0
1.0 -129 126 0
1.0 -172 55 0
1.0 -184 147 0
1.0 -6 -73 0
1.0 50 -61 0
1.0 -190 16 0
1.0 -71 13 0
1.0 -43 -97 0
1.0 23 -34 0
1.0 89 186 0
1.0 -132 -182 0
1.0 55 -91 0
1.0 151 -131 0
1.0 -147 171 0
1.0 184 48 0
1.0 -144 -167 0
1.0 -1 60 0
1.0 -45 -180 0
1.0 -161 124 0
1.0 -15 -170 0
1.0 -101 131 0
1.0 101 48 0
1.0 -95 126 0
1.0 92 108 0
1.0 -167 166 0
1.0 -145 -142 0
1.0 -66 101 0
1.0 71 -40 0
1.0 170 150 0
1.0 -197 83 0
1.0 -8 65 0
1.0 -173 -136 0
1.0 -101 171 0
1.0 -113 -137 0
1.0 37 -71 0
1.0 110 101 0
1.0 -50 95 0
1.0 -178 -105 0
1.0 170 -69 0
1.0 5 -75 0
1.0 -46 -30 0
1.0 -166 100 0
1.0 -170 192 0
1.0 -92 -186 0
1.0 -81 108 0
1.0 13 -126 0
1.0 -194 -126 0
1.0 -1 4 0
1.0 33 -53 0
1.0 -152 -138 0
1.0 130 108 0
1.0 -93 -159 0
1.0 67 149 0
1.0 74 72 0
1.0 198 -185 0
1.0 188 168 0
1.0 20 -47 0
1.0 185 -16 0
1.0 -124 93 0
1.0 -52 -96 0
1.0 -44 -18 0
1.0 -89 58 0
1.0 42 50 0
1.0 17 127 0
1.0 173 -66 0
1.0 82 101 0
1.0 194 5 0
1.0 -100 -8 0
1.0 25 -160 0
1.0 -17 45 0
1.0 95 -83 0
1.0 -10 -136 0
1.0 -1 156 0
1.0 56 10 0
1.0 15 -106 0
1.0 113 -56 0
1.0 15 118 0
1.0 163 49 0
1.0 -131 -177 0
1.0 -112 -116 0
1.0 -72 -62 0
1.0 -71 79 0
1.0 -184 69 0
1.0 125 -56 0
1.0 -173 -82 0
1.0 -131 60 0
1.0 37 -159 0
1.0 75 -124 0
1.0 185 54 0
1.0 -132 -48 0
1.0 117 139 0
1.0 -194 -45 0
1.0 -127 151 0
